NAME /Users/henri/Research/solvers/instances/idol-instances/robust/collection/cbp_Subramanyam_et_al_2020/CapBud_N10_5/models/uncertain_technology_matrix/
ROWS
 N  OBJ
 L  capacity
 L  c_600
 L  c_601
 L  c_602
 L  c_603
 L  c_604
 L  c_605
 L  c_606
 L  c_607
 L  c_608
 L  c_609
COLUMNS
    MARKER    'MARKER'                 'INTORG'
    x_0        OBJ        -8.02734
    x_0        c_600      1
    x_0        capacity   1.60547
    x_1        OBJ        -6.13702
    x_1        c_601      1
    x_1        capacity   1.2274
    x_2        OBJ        -7.55738
    x_2        c_602      1
    x_2        capacity   1.51148
    x_3        OBJ        -3.78403
    x_3        c_603      1
    x_3        capacity   0.756807
    x_4        OBJ        -6.00934
    x_4        c_604      1
    x_4        capacity   1.20187
    x_5        OBJ        -4.6917
    x_5        c_605      1
    x_5        capacity   0.93834
    x_6        OBJ        -7.25316
    x_6        c_606      1
    x_6        capacity   1.45063
    x_7        OBJ        -0.976597
    x_7        c_607      1
    x_7        capacity   0.195319
    x_8        OBJ        -1.17492
    x_8        c_608      1
    x_8        capacity   0.234983
    x_9        OBJ        -8.13224
    x_9        c_609      1
    x_9        capacity   1.62645
    y_0        OBJ        -6.42187
    y_0        c_600      1
    y_0        capacity   1.60547
    y_1        OBJ        -4.90962
    y_1        c_601      1
    y_1        capacity   1.2274
    y_2        OBJ        -6.0459
    y_2        c_602      1
    y_2        capacity   1.51148
    y_3        OBJ        -3.02723
    y_3        c_603      1
    y_3        capacity   0.756807
    y_4        OBJ        -4.80747
    y_4        c_604      1
    y_4        capacity   1.20187
    y_5        OBJ        -3.75336
    y_5        c_605      1
    y_5        capacity   0.93834
    y_6        OBJ        -5.80253
    y_6        c_606      1
    y_6        capacity   1.45063
    y_7        OBJ        -0.781277
    y_7        c_607      1
    y_7        capacity   0.195319
    y_8        OBJ        -0.939933
    y_8        c_608      1
    y_8        capacity   0.234983
    y_9        OBJ        -6.50579
    y_9        c_609      1
    y_9        capacity   1.62645
    MARKER    'MARKER'                 'INTEND'
RHS
    RHS       capacity   26.8719
    RHS       c_600      1
    RHS       c_601      1
    RHS       c_602      1
    RHS       c_603      1
    RHS       c_604      1
    RHS       c_605      1
    RHS       c_606      1
    RHS       c_607      1
    RHS       c_608      1
    RHS       c_609      1
BOUNDS
 LI BND       x_0        0
 UI BND       x_0        1
 LI BND       x_1        0
 UI BND       x_1        1
 LI BND       x_2        0
 UI BND       x_2        1
 LI BND       x_3        0
 UI BND       x_3        1
 LI BND       x_4        0
 UI BND       x_4        1
 LI BND       x_5        0
 UI BND       x_5        1
 LI BND       x_6        0
 UI BND       x_6        1
 LI BND       x_7        0
 UI BND       x_7        1
 LI BND       x_8        0
 UI BND       x_8        1
 LI BND       x_9        0
 UI BND       x_9        1
 LI BND       y_0        0
 UI BND       y_0        1
 LI BND       y_1        0
 UI BND       y_1        1
 LI BND       y_2        0
 UI BND       y_2        1
 LI BND       y_3        0
 UI BND       y_3        1
 LI BND       y_4        0
 UI BND       y_4        1
 LI BND       y_5        0
 UI BND       y_5        1
 LI BND       y_6        0
 UI BND       y_6        1
 LI BND       y_7        0
 UI BND       y_7        1
 LI BND       y_8        0
 UI BND       y_8        1
 LI BND       y_9        0
 UI BND       y_9        1
ENDATA
